&CONTROL

/

&SYSTEM

/
&ELECTRONS

/

ATOMIC_SPECIES

ATOMIC_POSITIONS {}

K_POINTS {}
